data/instances/vrp_files/train_64.vrp
NAME : 64
COMMENT : Generated instance No. 64
TYPE : CVRP
DIMENSION : 21
EDGE_WEIGHT_TYPE : EUC_2D
CAPACITY : 30
NODE_COORD_SECTION
 1 190 184
 2 311 339
 3 78 442
 4 261 343
 5 834 935
 6 185 372
 7 928 61
 8 92 162
 9 595 150
 10 968 446
 11 501 246
 12 470 661
 13 751 753
 14 577 904
 15 817 757
 16 55 6
 17 212 663
 18 411 402
 19 884 895
 20 909 313
 21 691 271
DEMAND_SECTION
1 0
2 10
3 5
4 9
5 4
6 1
7 4
8 6
9 5
10 1
11 4
12 6
13 10
14 10
15 4
16 9
17 5
18 8
19 9
20 10
21 5
DEPOT_SECTION
 1
 -1
EOF